NAME : portcgen-16-2
COMMENT : portcgen N=16, seed=2
TYPE : TSP
DIMENSION : 16
EDGE_WEIGHT_TYPE : EUC_2D
NODE_COORD_SECTION
1 369901 103945
2 631570 168415
3 -36345 -63145
4 -260115 -150692
5 -131946 -172134
6 300151 -361681
7 260815 199829
8 -475702 -111988
9 335000 -82062
10 -90171 279304
11 84861 37814
12 239888 405302
13 -220359 198925
14 -30888 -255329
15 32307 -45542
16 32052 -10476
